p cnf 15 39
-15 -13 -4 0
-15 -13 1 0
-15 12 -11 0
15 12 5 0
15 10 -7 0
-15 -10 -6 0
-15 -10 -4 0
15 7 3 0
-15 -6 -2 0
-15 -4 -3 0
-14 -12 11 0
14 -11 -8 0
14 -11 6 0
14 10 4 0
-14 8 2 0
-14 -6 2 0
-14 -6 -2 0
-14 5 2 0
14 -2 -1 0
14 -2 1 0
-13 -12 1 0
13 -7 -4 0
-13 6 -4 0
-13 4 1 0
-12 11 6 0
-12 -11 -3 0
12 9 7 0
12 7 4 0
-12 7 1 0
12 5 -1 0
-11 -10 3 0
-11 -9 6 0
-11 4 3 0
-11 4 -1 0
10 -9 -8 0
10 6 2 0
-10 -5 2 0
10 -2 -1 0
5 -3 2 0
